%SETS
JOBS     = 1..5;
MACHINES = 1..5;
SPEED    = 5;

time        = array3d(JOBS,MACHINES,1..SPEED,[2, 1, 1, 1, 1, 5, 1, 1, 1, 1, 10, 3, 2, 2, 1, 13, 4, 3, 2, 2, 20, 6, 4, 4, 3, 14, 4, 3, 2, 2, 29, 10, 7, 6, 5, 5, 2, 1, 1, 1, 54, 18, 13, 11, 9, 1, 1, 1, 1, 1, 28, 9, 7, 5, 5, 13, 4, 3, 2, 2, 21, 7, 5, 4, 3, 3, 1, 1, 1, 1, 5, 1, 1, 1, 1, 41, 14, 10, 8, 7, 89, 30, 21, 18, 16, 9, 3, 2, 1, 1, 30, 10, 7, 6, 5, 54, 18, 13, 11, 9, 58, 20, 14, 11, 10, 2, 1, 1, 1, 1, 1, 1, 1, 1, 1, 4, 1, 1, 1, 1, 54, 18, 13, 11, 9]);
energy      = array3d(JOBS,MACHINES,1..SPEED,[98, 99, 99, 99, 99, 95, 99, 99, 99, 99, 90, 97, 98, 98, 99, 87, 96, 97, 98, 98, 81, 94, 96, 96, 97, 86, 96, 97, 98, 98, 74, 90, 93, 94, 95, 95, 98, 99, 99, 99, 58, 83, 87, 89, 91, 99, 99, 99, 99, 99, 75, 91, 93, 95, 95, 87, 96, 97, 98, 98, 81, 93, 95, 96, 97, 97, 99, 99, 99, 99, 95, 99, 99, 99, 99, 66, 86, 90, 92, 93, 41, 74, 81, 83, 85, 91, 97, 98, 99, 99, 74, 90, 93, 94, 95, 58, 83, 87, 89, 91, 55, 81, 86, 89, 90, 98, 99, 99, 99, 99, 99, 99, 99, 99, 99, 96, 99, 99, 99, 99, 58, 83, 87, 89, 91]);
precedence  = array2d(JOBS,MACHINES,[2, 4, 1, 3, 0, 4, 2, 1, 0, 3, 0, 2, 1, 3, 4, 2, 4, 1, 3, 0, 4, 2, 1, 0, 3]);
releaseDate = [60, 20, 50, 40, 0];
dueDate     = [71, 45, 69, 86, 16];